$molecule
0 1
  C      1.0934      0.4724     -0.0376
  C      0.8289     -0.8959      0.0055
  C     -0.5823     -1.0383      0.0414
  H      2.0511      0.9905     -0.0730
  H      1.5593     -1.6999      0.0104
  H     -1.1801     -1.9470      0.0799
  N     -0.1470      1.1002     -0.0266
  N     -1.1526      0.1957      0.0208
  H     -0.3393      2.0670     -0.0484
$end

$rem
exchange B3LYP
unrestricted false
basis 6-31g
xc_grid 1
grain 1
thresh 10
scf_convergence 9 
scf_guess sad
scf_algorithm diis
scf_max_cycles 3000
rpa true
cis_n_roots 1
cis_singlets true
cis_triplets false
sym_ignore true
symmetry false
$end

@@@

$molecule
read
$end

$rem
gen_scfman true
exchange B3LYP
unrestricted false
basis 6-31g
xc_grid 1
grain 1
scf_guess read
scf_algorithm diis
scf_max_cycles 3000
scf_convergence 9 
thresh 10
RTPUMPPROBE 1
RTPPSTATE 1
sym_ignore true
symmetry false
$end
